p cnf 142 364
a 4 2 48 27 25 23 21 19 17 16 14 12 100 105 113 121 129 1 11 0
d 29 48 1 0
d 99 100 11 0
d 3 2 0
d 5 4 0
d 6 4 0
d 7 4 0
d 8 2 4 0
d 9 1 2 4 0
d 10 1 2 4 0
d 13 12 0
d 15 14 0
d 18 17 0
d 20 19 0
d 22 21 0
d 24 23 0
d 26 25 0
d 28 27 0
d 30 27 48 1 0
d 31 25 27 48 1 0
d 32 23 25 27 48 1 0
d 33 21 23 25 27 48 1 0
d 34 19 21 23 25 27 48 1 0
d 35 17 19 21 23 25 27 48 1 0
d 36 16 17 19 21 23 25 27 48 1 0
d 37 16 17 19 21 23 25 27 48 1 0
d 38 14 16 17 19 21 23 25 27 48 1 0
d 39 12 14 16 17 19 21 23 25 27 48 1 0
d 40 11 12 14 16 17 19 21 23 25 27 48 1 0
d 41 11 12 14 16 17 19 21 23 25 27 48 1 0
d 42 1 2 4 11 12 14 16 17 19 21 23 25 27 48 0
d 43 4 0
d 44 4 0
d 45 2 4 0
d 46 2 4 0
d 47 4 2 0
d 49 48 2 4 0
d 50 48 2 4 0
d 51 4 2 48 0
d 52 27 48 1 0
d 53 48 0
d 54 48 2 4 0
d 55 27 48 2 4 0
d 56 27 48 1 2 4 0
d 57 4 2 48 27 1 0
d 58 25 27 48 1 0
d 59 27 48 2 4 0
d 60 25 27 48 2 4 0
d 61 25 27 48 1 2 4 0
d 62 4 2 48 27 1 25 0
d 63 23 25 27 48 1 0
d 64 25 27 48 2 4 0
d 65 23 25 27 48 2 4 0
d 66 23 25 27 48 1 2 4 0
d 67 4 2 48 27 1 25 23 0
d 68 21 23 25 27 48 1 0
d 69 23 25 27 48 2 4 0
d 70 21 23 25 27 48 2 4 0
d 71 21 23 25 27 48 1 2 4 0
d 72 4 2 48 27 1 25 23 21 0
d 73 19 21 23 25 27 48 1 0
d 74 21 23 25 27 48 2 4 0
d 75 19 21 23 25 27 48 2 4 0
d 76 19 21 23 25 27 48 1 2 4 0
d 77 4 2 48 27 1 25 23 21 19 0
d 78 17 19 21 23 25 27 48 1 0
d 79 19 21 23 25 27 48 2 4 0
d 80 17 19 21 23 25 27 48 2 4 0
d 81 17 19 21 23 25 27 48 1 2 4 0
d 82 4 2 48 27 1 25 23 21 19 17 0
d 83 16 17 19 21 23 25 27 48 1 0
d 84 17 19 21 23 25 27 48 2 4 0
d 85 16 17 19 21 23 25 27 48 2 4 0
d 86 16 17 19 21 23 25 27 48 1 2 4 0
d 87 4 2 48 27 1 25 23 21 19 17 16 0
d 88 14 16 17 19 21 23 25 27 48 1 0
d 89 16 0
d 90 16 17 19 21 23 25 27 48 2 4 0
d 91 14 16 17 19 21 23 25 27 48 2 4 0
d 92 14 16 17 19 21 23 25 27 48 1 2 4 0
d 93 4 2 48 27 1 25 23 21 19 17 16 14 0
d 94 12 14 16 17 19 21 23 25 27 48 1 0
d 95 14 16 17 19 21 23 25 27 48 2 4 0
d 96 12 14 16 17 19 21 23 25 27 48 2 4 0
d 97 12 14 16 17 19 21 23 25 27 48 1 2 4 0
d 98 4 2 48 27 1 25 23 21 19 17 16 14 12 0
d 101 12 14 16 17 19 21 23 25 27 48 2 4 0
d 102 100 12 14 16 17 19 21 23 25 27 48 2 4 0
d 103 100 11 12 14 16 17 19 21 23 25 27 48 2 4 0
d 104 4 2 48 27 1 25 23 21 19 17 16 14 12 100 11 0
d 106 100 0
d 107 100 12 14 16 17 19 21 23 25 27 48 1 0
d 108 105 100 12 14 16 17 19 21 23 25 27 48 1 0
d 109 100 12 14 16 17 19 21 23 25 27 48 2 4 0
d 110 105 100 12 14 16 17 19 21 23 25 27 48 2 4 0
d 111 105 100 12 14 16 17 19 21 23 25 27 48 1 2 4 0
d 112 4 2 48 27 1 25 23 21 19 17 16 14 12 100 11 105 0
d 114 105 0
d 115 105 100 12 14 16 17 19 21 23 25 27 48 1 0
d 116 113 105 100 12 14 16 17 19 21 23 25 27 48 1 0
d 117 105 100 12 14 16 17 19 21 23 25 27 48 2 4 0
d 118 113 105 100 12 14 16 17 19 21 23 25 27 48 2 4 0
d 119 113 105 100 12 14 16 17 19 21 23 25 27 48 1 2 4 0
d 120 4 2 48 27 1 25 23 21 19 17 16 14 12 100 11 105 113 0
d 122 113 0
d 123 113 105 100 12 14 16 17 19 21 23 25 27 48 1 0
d 124 121 113 105 100 12 14 16 17 19 21 23 25 27 48 1 0
d 125 113 105 100 12 14 16 17 19 21 23 25 27 48 2 4 0
d 126 121 113 105 100 12 14 16 17 19 21 23 25 27 48 2 4 0
d 127 121 113 105 100 12 14 16 17 19 21 23 25 27 48 1 2 4 0
d 128 4 2 48 27 1 25 23 21 19 17 16 14 12 100 11 105 113 121 0
d 130 121 0
d 131 121 113 105 100 12 14 16 17 19 21 23 25 27 48 1 0
d 132 129 121 113 105 100 12 14 16 17 19 21 23 25 27 48 1 0
d 133 121 113 105 100 12 14 16 17 19 21 23 25 27 48 2 4 0
d 134 129 121 113 105 100 12 14 16 17 19 21 23 25 27 48 2 4 0
d 135 129 121 113 105 100 12 14 16 17 19 21 23 25 27 48 1 2 4 0
d 136 4 2 48 27 1 25 23 21 19 17 16 14 12 100 11 105 113 121 129 0
d 137 129 0
d 138 129 121 113 105 100 12 14 16 17 19 21 23 25 27 48 1 0
d 139 129 121 113 105 100 12 14 16 17 19 21 23 25 27 48 2 4 0
d 140 129 121 113 105 100 12 14 16 17 19 21 23 25 27 48 1 2 4 0
d 141 4 2 48 27 1 25 23 21 19 17 16 14 12 100 11 105 113 121 129 0
d 142 1 2 4 11 12 14 16 17 19 21 23 25 27 48 100 105 113 121 129 0
3 2 0
-3 -2 0
5 4 0
-5 -4 0
6 -4 0
6 -5 0
-6 4 5 0
-7 5 0
-7 6 0
7 -5 -6 0
-8 3 0
-8 7 0
8 -3 -7 0
9 -1 -8 0
9 1 8 0
-9 -1 8 0
-9 1 -8 0
10 9 0
-10 -9 0
13 12 0
-13 -12 0
15 14 0
-15 -14 0
18 17 0
-18 -17 0
20 19 0
-20 -19 0
22 21 0
-22 -21 0
24 23 0
-24 -23 0
26 25 0
-26 -25 0
28 27 0
-28 -27 0
-30 28 0
-30 29 0
30 -28 -29 0
-31 26 0
-31 30 0
31 -26 -30 0
-32 24 0
-32 31 0
32 -24 -31 0
-33 22 0
-33 32 0
33 -22 -32 0
-34 20 0
-34 33 0
34 -20 -33 0
-35 18 0
-35 34 0
35 -18 -34 0
36 -16 0
36 -35 0
-36 16 35 0
37 36 0
-37 -36 0
-38 15 0
-38 37 0
38 -15 -37 0
-39 13 0
-39 38 0
39 -13 -38 0
40 -11 -39 0
40 11 39 0
-40 -11 39 0
-40 11 -39 0
41 40 0
-41 -40 0
42 -10 0
42 -41 0
-42 10 41 0
-43 4 0
-43 6 0
43 -4 -6 0
44 -43 -43 0
44 43 43 0
-44 -43 43 0
-44 43 -43 0
-45 2 0
-45 7 0
45 -2 -7 0
46 -45 -45 0
46 45 45 0
-46 -45 45 0
-46 45 -45 0
-47 44 0
-47 46 0
47 -44 -46 0
-49 48 0
-49 8 0
49 -48 -8 0
50 -49 -49 0
50 49 49 0
-50 -49 49 0
-50 49 -49 0
-51 47 0
-51 50 0
51 -47 -50 0
-52 27 0
-52 29 0
52 -27 -29 0
53 48 0
-53 -48 0
-54 53 0
-54 8 0
54 -53 -8 0
-55 27 0
-55 54 0
55 -27 -54 0
56 -52 -55 0
56 52 55 0
-56 -52 55 0
-56 52 -55 0
-57 51 0
-57 56 0
57 -51 -56 0
-58 25 0
-58 30 0
58 -25 -30 0
-59 28 0
-59 54 0
59 -28 -54 0
-60 25 0
-60 59 0
60 -25 -59 0
61 -58 -60 0
61 58 60 0
-61 -58 60 0
-61 58 -60 0
-62 57 0
-62 61 0
62 -57 -61 0
-63 23 0
-63 31 0
63 -23 -31 0
-64 26 0
-64 59 0
64 -26 -59 0
-65 23 0
-65 64 0
65 -23 -64 0
66 -63 -65 0
66 63 65 0
-66 -63 65 0
-66 63 -65 0
-67 62 0
-67 66 0
67 -62 -66 0
-68 21 0
-68 32 0
68 -21 -32 0
-69 24 0
-69 64 0
69 -24 -64 0
-70 21 0
-70 69 0
70 -21 -69 0
71 -68 -70 0
71 68 70 0
-71 -68 70 0
-71 68 -70 0
-72 67 0
-72 71 0
72 -67 -71 0
-73 19 0
-73 33 0
73 -19 -33 0
-74 22 0
-74 69 0
74 -22 -69 0
-75 19 0
-75 74 0
75 -19 -74 0
76 -73 -75 0
76 73 75 0
-76 -73 75 0
-76 73 -75 0
-77 72 0
-77 76 0
77 -72 -76 0
-78 17 0
-78 34 0
78 -17 -34 0
-79 20 0
-79 74 0
79 -20 -74 0
-80 17 0
-80 79 0
80 -17 -79 0
81 -78 -80 0
81 78 80 0
-81 -78 80 0
-81 78 -80 0
-82 77 0
-82 81 0
82 -77 -81 0
-83 16 0
-83 35 0
83 -16 -35 0
-84 18 0
-84 79 0
84 -18 -79 0
-85 16 0
-85 84 0
85 -16 -84 0
86 -83 -85 0
86 83 85 0
-86 -83 85 0
-86 83 -85 0
-87 82 0
-87 86 0
87 -82 -86 0
-88 14 0
-88 37 0
88 -14 -37 0
89 16 0
-89 -16 0
-90 89 0
-90 84 0
90 -89 -84 0
-91 14 0
-91 90 0
91 -14 -90 0
92 -88 -91 0
92 88 91 0
-92 -88 91 0
-92 88 -91 0
-93 87 0
-93 92 0
93 -87 -92 0
-94 12 0
-94 38 0
94 -12 -38 0
-95 15 0
-95 90 0
95 -15 -90 0
-96 12 0
-96 95 0
96 -12 -95 0
97 -94 -96 0
97 94 96 0
-97 -94 96 0
-97 94 -96 0
-98 93 0
-98 97 0
98 -93 -97 0
-101 13 0
-101 95 0
101 -13 -95 0
-102 100 0
-102 101 0
102 -100 -101 0
103 -99 -102 0
103 99 102 0
-103 -99 102 0
-103 99 -102 0
-104 98 0
-104 103 0
104 -98 -103 0
106 100 0
-106 -100 0
-107 106 0
-107 39 0
107 -106 -39 0
-108 105 0
-108 107 0
108 -105 -107 0
-109 106 0
-109 101 0
109 -106 -101 0
-110 105 0
-110 109 0
110 -105 -109 0
111 -108 -110 0
111 108 110 0
-111 -108 110 0
-111 108 -110 0
-112 104 0
-112 111 0
112 -104 -111 0
114 105 0
-114 -105 0
-115 114 0
-115 107 0
115 -114 -107 0
-116 113 0
-116 115 0
116 -113 -115 0
-117 114 0
-117 109 0
117 -114 -109 0
-118 113 0
-118 117 0
118 -113 -117 0
119 -116 -118 0
119 116 118 0
-119 -116 118 0
-119 116 -118 0
-120 112 0
-120 119 0
120 -112 -119 0
122 113 0
-122 -113 0
-123 122 0
-123 115 0
123 -122 -115 0
-124 121 0
-124 123 0
124 -121 -123 0
-125 122 0
-125 117 0
125 -122 -117 0
-126 121 0
-126 125 0
126 -121 -125 0
127 -124 -126 0
127 124 126 0
-127 -124 126 0
-127 124 -126 0
-128 120 0
-128 127 0
128 -120 -127 0
130 121 0
-130 -121 0
-131 130 0
-131 123 0
131 -130 -123 0
-132 129 0
-132 131 0
132 -129 -131 0
-133 130 0
-133 125 0
133 -130 -125 0
-134 129 0
-134 133 0
134 -129 -133 0
135 -132 -134 0
135 132 134 0
-135 -132 134 0
-135 132 -134 0
-136 128 0
-136 135 0
136 -128 -135 0
137 129 0
-137 -129 0
-138 137 0
-138 131 0
138 -137 -131 0
-139 137 0
-139 133 0
139 -137 -133 0
140 -138 -139 0
140 138 139 0
-140 -138 139 0
-140 138 -139 0
-141 136 0
-141 140 0
141 -136 -140 0
142 -42 0
142 -141 0
-142 42 141 0
142 0
